TYPE : Vertex Cover
DIMENSION: 38
EDGE_DATA_SECTION:
0 14
1 3
1 19
1 23
1 24
1 32
2 4
2 12
2 29
2 35
3 19
3 24
3 25
4 10
4 17
4 19
4 23
4 24
4 33
4 34
5 6
5 14
5 22
5 33
5 36
6 10
6 18
7 13
7 21
7 22
7 24
7 27
7 32
8 10
8 24
8 32
9 10
9 12
9 26
10 14
10 20
10 28
10 29
11 12
11 16
11 17
12 20
12 26
12 29
13 23
13 30
14 20
14 22
15 17
15 20
15 37
16 28
16 35
17 20
17 25
17 28
18 19
18 28
18 32
19 21
19 23
19 32
20 29
21 24
22 27
22 29
22 31
23 25
23 27
23 33
24 36
26 31
26 36
27 31
27 33
27 36
28 35
28 37
29 31
30 35
31 34
33 34
33 37
34 37
-1
VERTEX_DEGREE:
1.0 5.0 4.0 4.0 8.0 5.0 3.0 6.0 3.0 3.0 8.0 3.0 6.0 3.0 5.0 3.0 3.0 6.0 4.0 7.0 6.0 3.0 6.0 7.0 7.0 3.0 4.0 6.0 6.0 6.0 2.0 5.0 5.0 6.0 4.0 4.0 4.0 4.0
VERTEX_COVER:
3 4 5 7 10 12 14 16 17 18 19 20 23 24 26 27 29 30 31 32 33 35 37
EOF
